(set-logic HORN)
(declare-datatypes ((Nat_1 0)) (((Z_0 ) (S_0 (unS_0 Nat_1)))))
(declare-fun diseqNat_0 (Nat_1 Nat_1) Bool)
(declare-fun unS_1 (Nat_1 Nat_1) Bool)
(declare-fun isZ_0 (Nat_1) Bool)
(declare-fun isS_0 (Nat_1) Bool)
(assert (forall ((x_75 Nat_1) (x_74 Nat_1))
	(=> (= x_75 (S_0 x_74))
	    (unS_1 x_74 x_75))))
(assert (isZ_0 Z_0))
(assert (forall ((x_76 Nat_1))
	(isS_0 (S_0 x_76))))
(assert (forall ((x_77 Nat_1))
	(diseqNat_0 Z_0 (S_0 x_77))))
(assert (forall ((x_78 Nat_1))
	(diseqNat_0 (S_0 x_78) Z_0)))
(assert (forall ((x_79 Nat_1) (x_80 Nat_1))
	(=> (diseqNat_0 x_79 x_80)
	    (diseqNat_0 (S_0 x_79) (S_0 x_80)))))
(declare-fun add_0 (Nat_1 Nat_1 Nat_1) Bool)
(declare-fun minus_0 (Nat_1 Nat_1 Nat_1) Bool)
(declare-fun le_0 (Nat_1 Nat_1) Bool)
(declare-fun ge_0 (Nat_1 Nat_1) Bool)
(declare-fun lt_0 (Nat_1 Nat_1) Bool)
(declare-fun gt_0 (Nat_1 Nat_1) Bool)
(declare-fun mult_0 (Nat_1 Nat_1 Nat_1) Bool)
(declare-fun div_0 (Nat_1 Nat_1 Nat_1) Bool)
(declare-fun mod_0 (Nat_1 Nat_1 Nat_1) Bool)
(assert (forall ((y_3 Nat_1))
	(add_0 y_3 Z_0 y_3)))
(assert (forall ((x_72 Nat_1) (y_3 Nat_1) (r_0 Nat_1))
	(=> (add_0 r_0 x_72 y_3)
	    (add_0 (S_0 r_0) (S_0 x_72) y_3))))
(assert (forall ((y_3 Nat_1))
	(minus_0 Z_0 Z_0 y_3)))
(assert (forall ((x_72 Nat_1) (y_3 Nat_1) (r_0 Nat_1))
	(=> (minus_0 r_0 x_72 y_3)
	    (minus_0 (S_0 r_0) (S_0 x_72) y_3))))
(assert (forall ((y_3 Nat_1))
	(le_0 Z_0 y_3)))
(assert (forall ((x_72 Nat_1) (y_3 Nat_1))
	(=> (le_0 x_72 y_3)
	    (le_0 (S_0 x_72) (S_0 y_3)))))
(assert (forall ((y_3 Nat_1))
	(ge_0 y_3 Z_0)))
(assert (forall ((x_72 Nat_1) (y_3 Nat_1))
	(=> (ge_0 x_72 y_3)
	    (ge_0 (S_0 x_72) (S_0 y_3)))))
(assert (forall ((y_3 Nat_1))
	(lt_0 Z_0 (S_0 y_3))))
(assert (forall ((x_72 Nat_1) (y_3 Nat_1))
	(=> (lt_0 x_72 y_3)
	    (lt_0 (S_0 x_72) (S_0 y_3)))))
(assert (forall ((y_3 Nat_1))
	(gt_0 (S_0 y_3) Z_0)))
(assert (forall ((x_72 Nat_1) (y_3 Nat_1))
	(=> (gt_0 x_72 y_3)
	    (gt_0 (S_0 x_72) (S_0 y_3)))))
(assert (forall ((y_3 Nat_1))
	(mult_0 Z_0 Z_0 y_3)))
(assert (forall ((x_72 Nat_1) (y_3 Nat_1) (r_0 Nat_1) (z_2 Nat_1))
	(=>	(and (mult_0 r_0 x_72 y_3)
			(add_0 z_2 r_0 y_3))
		(mult_0 z_2 (S_0 x_72) y_3))))
(assert (forall ((x_72 Nat_1) (y_3 Nat_1))
	(=> (lt_0 x_72 y_3)
	    (div_0 Z_0 x_72 y_3))))
(assert (forall ((x_72 Nat_1) (y_3 Nat_1) (r_0 Nat_1) (z_2 Nat_1))
	(=>	(and (ge_0 x_72 y_3)
			(minus_0 z_2 x_72 y_3)
			(div_0 r_0 z_2 y_3))
		(div_0 (S_0 r_0) x_72 y_3))))
(assert (forall ((x_72 Nat_1) (y_3 Nat_1))
	(=> (lt_0 x_72 y_3)
	    (mod_0 x_72 x_72 y_3))))
(assert (forall ((x_72 Nat_1) (y_3 Nat_1) (r_0 Nat_1) (z_2 Nat_1))
	(=>	(and (ge_0 x_72 y_3)
			(minus_0 z_2 x_72 y_3)
			(mod_0 r_0 z_2 y_3))
		(mod_0 r_0 x_72 y_3))))
(declare-datatypes ((Nat_0 0)) (((zero_0 ) (succ_0 (p_0 Nat_0)))))
(declare-fun diseqNat_1 (Nat_0 Nat_0) Bool)
(declare-fun p_1 (Nat_0 Nat_0) Bool)
(declare-fun iszero_0 (Nat_0) Bool)
(declare-fun issucc_0 (Nat_0) Bool)
(assert (forall ((x_83 Nat_0) (x_82 Nat_0))
	(=> (= x_83 (succ_0 x_82))
	    (p_1 x_82 x_83))))
(assert (iszero_0 zero_0))
(assert (forall ((x_84 Nat_0))
	(issucc_0 (succ_0 x_84))))
(assert (forall ((x_85 Nat_0))
	(diseqNat_1 zero_0 (succ_0 x_85))))
(assert (forall ((x_86 Nat_0))
	(diseqNat_1 (succ_0 x_86) zero_0)))
(assert (forall ((x_87 Nat_0) (x_88 Nat_0))
	(=> (diseqNat_1 x_87 x_88)
	    (diseqNat_1 (succ_0 x_87) (succ_0 x_88)))))
(declare-fun leq_0 (Bool Nat_0 Nat_0) Bool)
(assert (forall ((x_0 Nat_0) (y_0 Nat_0) (z_0 Nat_0) (x_1 Nat_0) (x_4 Bool) (x_5 Bool))
	(=>	(and (= x_4 x_5)
			(leq_0 x_5 z_0 x_1)
			(= x_0 (succ_0 z_0))
			(= y_0 (succ_0 x_1)))
		(leq_0 x_4 x_0 y_0))))
(assert (forall ((x_0 Nat_0) (y_0 Nat_0) (z_0 Nat_0) (x_6 Bool))
	(=>	(and (= x_6 false)
			(= x_0 (succ_0 z_0))
			(= y_0 zero_0))
		(leq_0 x_6 x_0 y_0))))
(assert (forall ((x_0 Nat_0) (y_0 Nat_0) (x_7 Bool))
	(=>	(and (= x_7 true)
			(= x_0 zero_0))
		(leq_0 x_7 x_0 y_0))))
(assert (forall ((x_2 Nat_0) (y_1 Nat_0) (z_1 Nat_0) (y_2 Nat_0) (x_3 Nat_0) (x_8 Bool) (x_9 Bool) (x_10 Bool) (x_11 Bool))
	(=>	(and (diseqNat_1 y_2 z_1)
			(= y_2 z_1)
			(= x_8 true)
			(= x_3 y_1)
			(= x_9 true)
			(= x_10 true)
			(= x_11 true)
			(leq_0 x_8 y_1 z_1)
			(leq_0 x_9 x_2 y_1)
			(leq_0 x_10 x_2 y_2)
			(leq_0 x_11 x_3 z_1))
		false)))
(assert (forall ((x_2 Nat_0) (y_1 Nat_0) (z_1 Nat_0) (y_2 Nat_0) (x_3 Nat_0) (x_12 Bool) (x_13 Bool) (x_14 Bool) (x_15 Bool))
	(=>	(and (diseqNat_1 x_2 z_1)
			(= y_2 z_1)
			(= x_12 true)
			(= x_3 y_1)
			(= x_13 true)
			(= x_14 false)
			(= x_15 true)
			(leq_0 x_12 y_1 z_1)
			(leq_0 x_13 x_2 y_1)
			(leq_0 x_14 x_2 y_2)
			(leq_0 x_15 x_3 z_1))
		false)))
(assert (forall ((x_2 Nat_0) (y_1 Nat_0) (z_1 Nat_0) (y_2 Nat_0) (x_3 Nat_0) (x_16 Bool) (x_17 Bool) (x_18 Bool) (x_19 Bool))
	(=>	(and (diseqNat_1 y_2 x_3)
			(= y_2 z_1)
			(= x_16 true)
			(= x_3 y_1)
			(= x_17 true)
			(= x_18 true)
			(= x_19 false)
			(leq_0 x_16 y_1 z_1)
			(leq_0 x_17 x_2 y_1)
			(leq_0 x_18 x_2 y_2)
			(leq_0 x_19 x_3 z_1))
		false)))
(assert (forall ((x_2 Nat_0) (y_1 Nat_0) (z_1 Nat_0) (y_2 Nat_0) (x_3 Nat_0) (x_20 Bool) (x_21 Bool) (x_22 Bool) (x_23 Bool))
	(=>	(and (diseqNat_1 x_2 x_3)
			(= y_2 z_1)
			(= x_20 true)
			(= x_3 y_1)
			(= x_21 true)
			(= x_22 false)
			(= x_23 false)
			(leq_0 x_20 y_1 z_1)
			(leq_0 x_21 x_2 y_1)
			(leq_0 x_22 x_2 y_2)
			(leq_0 x_23 x_3 z_1))
		false)))
(assert (forall ((x_2 Nat_0) (y_1 Nat_0) (z_1 Nat_0) (y_2 Nat_0) (x_3 Nat_0) (x_24 Bool) (x_25 Bool) (x_26 Bool) (x_27 Bool))
	(=>	(and (diseqNat_1 y_2 z_1)
			(= y_2 y_1)
			(= x_24 false)
			(= x_3 y_1)
			(= x_25 true)
			(= x_26 true)
			(= x_27 true)
			(leq_0 x_24 y_1 z_1)
			(leq_0 x_25 x_2 y_1)
			(leq_0 x_26 x_2 y_2)
			(leq_0 x_27 x_3 z_1))
		false)))
(assert (forall ((x_2 Nat_0) (y_1 Nat_0) (z_1 Nat_0) (y_2 Nat_0) (x_3 Nat_0) (x_28 Bool) (x_29 Bool) (x_30 Bool) (x_31 Bool))
	(=>	(and (diseqNat_1 x_2 z_1)
			(= y_2 y_1)
			(= x_28 false)
			(= x_3 y_1)
			(= x_29 true)
			(= x_30 false)
			(= x_31 true)
			(leq_0 x_28 y_1 z_1)
			(leq_0 x_29 x_2 y_1)
			(leq_0 x_30 x_2 y_2)
			(leq_0 x_31 x_3 z_1))
		false)))
(assert (forall ((x_2 Nat_0) (y_1 Nat_0) (z_1 Nat_0) (y_2 Nat_0) (x_3 Nat_0) (x_32 Bool) (x_33 Bool) (x_34 Bool) (x_35 Bool))
	(=>	(and (diseqNat_1 y_2 x_3)
			(= y_2 y_1)
			(= x_32 false)
			(= x_3 y_1)
			(= x_33 true)
			(= x_34 true)
			(= x_35 false)
			(leq_0 x_32 y_1 z_1)
			(leq_0 x_33 x_2 y_1)
			(leq_0 x_34 x_2 y_2)
			(leq_0 x_35 x_3 z_1))
		false)))
(assert (forall ((x_2 Nat_0) (y_1 Nat_0) (z_1 Nat_0) (y_2 Nat_0) (x_3 Nat_0) (x_36 Bool) (x_37 Bool) (x_38 Bool) (x_39 Bool))
	(=>	(and (diseqNat_1 x_2 x_3)
			(= y_2 y_1)
			(= x_36 false)
			(= x_3 y_1)
			(= x_37 true)
			(= x_38 false)
			(= x_39 false)
			(leq_0 x_36 y_1 z_1)
			(leq_0 x_37 x_2 y_1)
			(leq_0 x_38 x_2 y_2)
			(leq_0 x_39 x_3 z_1))
		false)))
(assert (forall ((x_2 Nat_0) (y_1 Nat_0) (z_1 Nat_0) (y_2 Nat_0) (x_3 Nat_0) (x_40 Bool) (x_41 Bool) (x_42 Bool) (x_43 Bool))
	(=>	(and (diseqNat_1 y_2 z_1)
			(= y_2 z_1)
			(= x_40 true)
			(= x_3 x_2)
			(= x_41 false)
			(= x_42 true)
			(= x_43 true)
			(leq_0 x_40 y_1 z_1)
			(leq_0 x_41 x_2 y_1)
			(leq_0 x_42 x_2 y_2)
			(leq_0 x_43 x_3 z_1))
		false)))
(assert (forall ((x_2 Nat_0) (y_1 Nat_0) (z_1 Nat_0) (y_2 Nat_0) (x_3 Nat_0) (x_44 Bool) (x_45 Bool) (x_46 Bool) (x_47 Bool))
	(=>	(and (diseqNat_1 x_2 z_1)
			(= y_2 z_1)
			(= x_44 true)
			(= x_3 x_2)
			(= x_45 false)
			(= x_46 false)
			(= x_47 true)
			(leq_0 x_44 y_1 z_1)
			(leq_0 x_45 x_2 y_1)
			(leq_0 x_46 x_2 y_2)
			(leq_0 x_47 x_3 z_1))
		false)))
(assert (forall ((x_2 Nat_0) (y_1 Nat_0) (z_1 Nat_0) (y_2 Nat_0) (x_3 Nat_0) (x_48 Bool) (x_49 Bool) (x_50 Bool) (x_51 Bool))
	(=>	(and (diseqNat_1 y_2 x_3)
			(= y_2 z_1)
			(= x_48 true)
			(= x_3 x_2)
			(= x_49 false)
			(= x_50 true)
			(= x_51 false)
			(leq_0 x_48 y_1 z_1)
			(leq_0 x_49 x_2 y_1)
			(leq_0 x_50 x_2 y_2)
			(leq_0 x_51 x_3 z_1))
		false)))
(assert (forall ((x_2 Nat_0) (y_1 Nat_0) (z_1 Nat_0) (y_2 Nat_0) (x_3 Nat_0) (x_52 Bool) (x_53 Bool) (x_54 Bool) (x_55 Bool))
	(=>	(and (diseqNat_1 x_2 x_3)
			(= y_2 z_1)
			(= x_52 true)
			(= x_3 x_2)
			(= x_53 false)
			(= x_54 false)
			(= x_55 false)
			(leq_0 x_52 y_1 z_1)
			(leq_0 x_53 x_2 y_1)
			(leq_0 x_54 x_2 y_2)
			(leq_0 x_55 x_3 z_1))
		false)))
(assert (forall ((x_2 Nat_0) (y_1 Nat_0) (z_1 Nat_0) (y_2 Nat_0) (x_3 Nat_0) (x_56 Bool) (x_57 Bool) (x_58 Bool) (x_59 Bool))
	(=>	(and (diseqNat_1 y_2 z_1)
			(= y_2 y_1)
			(= x_56 false)
			(= x_3 x_2)
			(= x_57 false)
			(= x_58 true)
			(= x_59 true)
			(leq_0 x_56 y_1 z_1)
			(leq_0 x_57 x_2 y_1)
			(leq_0 x_58 x_2 y_2)
			(leq_0 x_59 x_3 z_1))
		false)))
(assert (forall ((x_2 Nat_0) (y_1 Nat_0) (z_1 Nat_0) (y_2 Nat_0) (x_3 Nat_0) (x_60 Bool) (x_61 Bool) (x_62 Bool) (x_63 Bool))
	(=>	(and (diseqNat_1 x_2 z_1)
			(= y_2 y_1)
			(= x_60 false)
			(= x_3 x_2)
			(= x_61 false)
			(= x_62 false)
			(= x_63 true)
			(leq_0 x_60 y_1 z_1)
			(leq_0 x_61 x_2 y_1)
			(leq_0 x_62 x_2 y_2)
			(leq_0 x_63 x_3 z_1))
		false)))
(assert (forall ((x_2 Nat_0) (y_1 Nat_0) (z_1 Nat_0) (y_2 Nat_0) (x_3 Nat_0) (x_64 Bool) (x_65 Bool) (x_66 Bool) (x_67 Bool))
	(=>	(and (diseqNat_1 y_2 x_3)
			(= y_2 y_1)
			(= x_64 false)
			(= x_3 x_2)
			(= x_65 false)
			(= x_66 true)
			(= x_67 false)
			(leq_0 x_64 y_1 z_1)
			(leq_0 x_65 x_2 y_1)
			(leq_0 x_66 x_2 y_2)
			(leq_0 x_67 x_3 z_1))
		false)))
(assert (forall ((x_2 Nat_0) (y_1 Nat_0) (z_1 Nat_0) (y_2 Nat_0) (x_3 Nat_0) (x_68 Bool) (x_69 Bool) (x_70 Bool) (x_71 Bool))
	(=>	(and (diseqNat_1 x_2 x_3)
			(= y_2 y_1)
			(= x_68 false)
			(= x_3 x_2)
			(= x_69 false)
			(= x_70 false)
			(= x_71 false)
			(leq_0 x_68 y_1 z_1)
			(leq_0 x_69 x_2 y_1)
			(leq_0 x_70 x_2 y_2)
			(leq_0 x_71 x_3 z_1))
		false)))
(check-sat)
